f:721157
solution:
3 76 145 7 61 167 191 97 120 28 68 177 71 58 66 113 122 39 146 142 153 74 21 193 34 16 173 152 31 186 38 83 55 116 77 178 149 164 121 100 123 4 129 52 109 42 170 73 43 171 105 15 45 118 80 163 154 82 17 46 176 172 27 189 57 40 12 162 117 23 93 87 158 125 9 115 72 150 160 127 6 165 192 96 91 156 132 197 126 94 136 37 195 11 10 64 106 143 103 184 85 63 29 180 81 41 79 124 175 47 199 54 14 62 56 147 107 49 70 51 5 44 1 95 13 188 134 112 50 131 169 198 159 33 166 187 88 148 60 99 182 185 137 179 196 181 32 18 75 25 30 111 102 135 20 67 168 2 86 78 22 128 114 194 98 140 155 101 190 133 174 108 59 90 89 65 151 183 26 48 157 53 139 104 130 110 69 161 138 24 92 119 36 144 8 35 0 84 141 19 
